NAME /Users/henri/Research/solvers/instances/idol-instances/robust/collection/spp_dkp_Lefebvre_et_al_2026/shortest_path_8_3/uncertainty_sets/discrete_knapsack
ROWS
 N  OBJ
 L  primal_lower
COLUMNS
    MARKER    'MARKER'                 'INTORG'
    y[0,1]     OBJ        0
    y[0,1]     primal_lower -4.75
    y[0,2]     OBJ        0
    y[0,2]     primal_lower -2.64
    y[0,3]     OBJ        0
    y[0,3]     primal_lower -1.35
    y[0,4]     OBJ        0
    y[0,4]     primal_lower -0.37
    y[0,5]     OBJ        0
    y[0,5]     primal_lower -2.14
    y[0,6]     OBJ        0
    y[0,6]     primal_lower -2.27
    y[0,7]     OBJ        0
    y[0,7]     primal_lower -0.23
    y[1,0]     OBJ        0
    y[1,0]     primal_lower -0.78
    y[1,2]     OBJ        0
    y[1,2]     primal_lower -0.56
    y[1,3]     OBJ        0
    y[1,3]     primal_lower -3.01
    y[1,4]     OBJ        0
    y[1,4]     primal_lower -4.11
    y[1,5]     OBJ        0
    y[1,5]     primal_lower -3.12
    y[1,6]     OBJ        0
    y[1,6]     primal_lower -4.76
    y[2,0]     OBJ        0
    y[2,0]     primal_lower -2.26
    y[2,1]     OBJ        0
    y[2,1]     primal_lower -2.97
    y[2,3]     OBJ        0
    y[2,3]     primal_lower -1.36
    y[2,4]     OBJ        0
    y[2,4]     primal_lower -4.69
    y[2,5]     OBJ        0
    y[2,5]     primal_lower -3.23
    y[2,6]     OBJ        0
    y[2,6]     primal_lower -2.12
    y[2,7]     OBJ        0
    y[2,7]     primal_lower -1.39
    y[3,0]     OBJ        0
    y[3,0]     primal_lower -2.45
    y[3,1]     OBJ        0
    y[3,1]     primal_lower -0.54
    y[3,2]     OBJ        0
    y[3,2]     primal_lower -1.09
    y[3,5]     OBJ        0
    y[3,5]     primal_lower -2.3
    y[3,6]     OBJ        0
    y[3,6]     primal_lower -1.17
    y[4,0]     OBJ        0
    y[4,0]     primal_lower -1.86
    y[4,1]     OBJ        0
    y[4,1]     primal_lower -3.93
    y[4,2]     OBJ        0
    y[4,2]     primal_lower -0.36
    y[4,5]     OBJ        0
    y[4,5]     primal_lower -4.44
    y[4,6]     OBJ        0
    y[4,6]     primal_lower -1.08
    y[4,7]     OBJ        0
    y[4,7]     primal_lower -3.39
    y[5,0]     OBJ        0
    y[5,0]     primal_lower -0.53
    y[5,1]     OBJ        0
    y[5,1]     primal_lower -2.89
    y[5,2]     OBJ        0
    y[5,2]     primal_lower -1.95
    y[5,3]     OBJ        0
    y[5,3]     primal_lower -4.02
    y[5,4]     OBJ        0
    y[5,4]     primal_lower -1.2
    y[5,6]     OBJ        0
    y[5,6]     primal_lower -2.2
    y[6,0]     OBJ        0
    y[6,0]     primal_lower -2.68
    y[6,1]     OBJ        0
    y[6,1]     primal_lower -1.21
    y[6,2]     OBJ        0
    y[6,2]     primal_lower -0.53
    y[6,3]     OBJ        0
    y[6,3]     primal_lower -3.49
    y[6,4]     OBJ        0
    y[6,4]     primal_lower -1.49
    y[6,5]     OBJ        0
    y[6,5]     primal_lower -3.97
    y[7,0]     OBJ        0
    y[7,0]     primal_lower -2.17
    y[7,2]     OBJ        0
    y[7,2]     primal_lower -0.45
    y[7,4]     OBJ        0
    y[7,4]     primal_lower -4.26
    u[0,1]     OBJ        0
    u[0,1]     primal_lower 95
    u[0,2]     OBJ        0
    u[0,2]     primal_lower 88
    u[0,3]     OBJ        0
    u[0,3]     primal_lower 12
    u[0,4]     OBJ        0
    u[0,4]     primal_lower 76
    u[0,5]     OBJ        0
    u[0,5]     primal_lower 14
    u[0,6]     OBJ        0
    u[0,6]     primal_lower 58
    u[0,7]     OBJ        0
    u[0,7]     primal_lower 23
    u[1,0]     OBJ        0
    u[1,0]     primal_lower 38
    u[1,2]     OBJ        0
    u[1,2]     primal_lower 32
    u[1,3]     OBJ        0
    u[1,3]     primal_lower 19
    u[1,4]     OBJ        0
    u[1,4]     primal_lower 93
    u[1,5]     OBJ        0
    u[1,5]     primal_lower 67
    u[1,6]     OBJ        0
    u[1,6]     primal_lower 57
    u[2,0]     OBJ        0
    u[2,0]     primal_lower 55
    u[2,1]     OBJ        0
    u[2,1]     primal_lower 67
    u[2,3]     OBJ        0
    u[2,3]     primal_lower 49
    u[2,4]     OBJ        0
    u[2,4]     primal_lower 41
    u[2,5]     OBJ        0
    u[2,5]     primal_lower 8
    u[2,6]     OBJ        0
    u[2,6]     primal_lower 58
    u[2,7]     OBJ        0
    u[2,7]     primal_lower 96
    u[3,0]     OBJ        0
    u[3,0]     primal_lower 3
    u[3,1]     OBJ        0
    u[3,1]     primal_lower 73
    u[3,2]     OBJ        0
    u[3,2]     primal_lower 91
    u[3,5]     OBJ        0
    u[3,5]     primal_lower 73
    u[3,6]     OBJ        0
    u[3,6]     primal_lower 48
    u[4,0]     OBJ        0
    u[4,0]     primal_lower 45
    u[4,1]     OBJ        0
    u[4,1]     primal_lower 88
    u[4,2]     OBJ        0
    u[4,2]     primal_lower 92
    u[4,5]     OBJ        0
    u[4,5]     primal_lower 56
    u[4,6]     OBJ        0
    u[4,6]     primal_lower 61
    u[4,7]     OBJ        0
    u[4,7]     primal_lower 48
    u[5,0]     OBJ        0
    u[5,0]     primal_lower 82
    u[5,1]     OBJ        0
    u[5,1]     primal_lower 41
    u[5,2]     OBJ        0
    u[5,2]     primal_lower 48
    u[5,3]     OBJ        0
    u[5,3]     primal_lower 4
    u[5,4]     OBJ        0
    u[5,4]     primal_lower 36
    u[5,6]     OBJ        0
    u[5,6]     primal_lower 33
    u[6,0]     OBJ        0
    u[6,0]     primal_lower 100
    u[6,1]     OBJ        0
    u[6,1]     primal_lower 70
    u[6,2]     OBJ        0
    u[6,2]     primal_lower 47
    u[6,3]     OBJ        0
    u[6,3]     primal_lower 13
    u[6,4]     OBJ        0
    u[6,4]     primal_lower 99
    u[6,5]     OBJ        0
    u[6,5]     primal_lower 67
    u[7,0]     OBJ        0
    u[7,0]     primal_lower 9
    u[7,2]     OBJ        0
    u[7,2]     primal_lower 36
    u[7,4]     OBJ        0
    u[7,4]     primal_lower 22
    MARKER    'MARKER'                 'INTEND'
RHS
    RHS       primal_lower 221
BOUNDS
 LI BND       y[0,1]     0
 UI BND       y[0,1]     1
 LI BND       y[0,2]     0
 UI BND       y[0,2]     1
 LI BND       y[0,3]     0
 UI BND       y[0,3]     1
 LI BND       y[0,4]     0
 UI BND       y[0,4]     1
 LI BND       y[0,5]     0
 UI BND       y[0,5]     1
 LI BND       y[0,6]     0
 UI BND       y[0,6]     1
 LI BND       y[0,7]     0
 UI BND       y[0,7]     1
 LI BND       y[1,0]     0
 UI BND       y[1,0]     1
 LI BND       y[1,2]     0
 UI BND       y[1,2]     1
 LI BND       y[1,3]     0
 UI BND       y[1,3]     1
 LI BND       y[1,4]     0
 UI BND       y[1,4]     1
 LI BND       y[1,5]     0
 UI BND       y[1,5]     1
 LI BND       y[1,6]     0
 UI BND       y[1,6]     1
 LI BND       y[2,0]     0
 UI BND       y[2,0]     1
 LI BND       y[2,1]     0
 UI BND       y[2,1]     1
 LI BND       y[2,3]     0
 UI BND       y[2,3]     1
 LI BND       y[2,4]     0
 UI BND       y[2,4]     1
 LI BND       y[2,5]     0
 UI BND       y[2,5]     1
 LI BND       y[2,6]     0
 UI BND       y[2,6]     1
 LI BND       y[2,7]     0
 UI BND       y[2,7]     1
 LI BND       y[3,0]     0
 UI BND       y[3,0]     1
 LI BND       y[3,1]     0
 UI BND       y[3,1]     1
 LI BND       y[3,2]     0
 UI BND       y[3,2]     1
 LI BND       y[3,5]     0
 UI BND       y[3,5]     1
 LI BND       y[3,6]     0
 UI BND       y[3,6]     1
 LI BND       y[4,0]     0
 UI BND       y[4,0]     1
 LI BND       y[4,1]     0
 UI BND       y[4,1]     1
 LI BND       y[4,2]     0
 UI BND       y[4,2]     1
 LI BND       y[4,5]     0
 UI BND       y[4,5]     1
 LI BND       y[4,6]     0
 UI BND       y[4,6]     1
 LI BND       y[4,7]     0
 UI BND       y[4,7]     1
 LI BND       y[5,0]     0
 UI BND       y[5,0]     1
 LI BND       y[5,1]     0
 UI BND       y[5,1]     1
 LI BND       y[5,2]     0
 UI BND       y[5,2]     1
 LI BND       y[5,3]     0
 UI BND       y[5,3]     1
 LI BND       y[5,4]     0
 UI BND       y[5,4]     1
 LI BND       y[5,6]     0
 UI BND       y[5,6]     1
 LI BND       y[6,0]     0
 UI BND       y[6,0]     1
 LI BND       y[6,1]     0
 UI BND       y[6,1]     1
 LI BND       y[6,2]     0
 UI BND       y[6,2]     1
 LI BND       y[6,3]     0
 UI BND       y[6,3]     1
 LI BND       y[6,4]     0
 UI BND       y[6,4]     1
 LI BND       y[6,5]     0
 UI BND       y[6,5]     1
 LI BND       y[7,0]     0
 UI BND       y[7,0]     1
 LI BND       y[7,2]     0
 UI BND       y[7,2]     1
 LI BND       y[7,4]     0
 UI BND       y[7,4]     1
 LI BND       u[0,1]     0
 UI BND       u[0,1]     1
 LI BND       u[0,2]     0
 UI BND       u[0,2]     1
 LI BND       u[0,3]     0
 UI BND       u[0,3]     1
 LI BND       u[0,4]     0
 UI BND       u[0,4]     1
 LI BND       u[0,5]     0
 UI BND       u[0,5]     1
 LI BND       u[0,6]     0
 UI BND       u[0,6]     1
 LI BND       u[0,7]     0
 UI BND       u[0,7]     1
 LI BND       u[1,0]     0
 UI BND       u[1,0]     1
 LI BND       u[1,2]     0
 UI BND       u[1,2]     1
 LI BND       u[1,3]     0
 UI BND       u[1,3]     1
 LI BND       u[1,4]     0
 UI BND       u[1,4]     1
 LI BND       u[1,5]     0
 UI BND       u[1,5]     1
 LI BND       u[1,6]     0
 UI BND       u[1,6]     1
 LI BND       u[2,0]     0
 UI BND       u[2,0]     1
 LI BND       u[2,1]     0
 UI BND       u[2,1]     1
 LI BND       u[2,3]     0
 UI BND       u[2,3]     1
 LI BND       u[2,4]     0
 UI BND       u[2,4]     1
 LI BND       u[2,5]     0
 UI BND       u[2,5]     1
 LI BND       u[2,6]     0
 UI BND       u[2,6]     1
 LI BND       u[2,7]     0
 UI BND       u[2,7]     1
 LI BND       u[3,0]     0
 UI BND       u[3,0]     1
 LI BND       u[3,1]     0
 UI BND       u[3,1]     1
 LI BND       u[3,2]     0
 UI BND       u[3,2]     1
 LI BND       u[3,5]     0
 UI BND       u[3,5]     1
 LI BND       u[3,6]     0
 UI BND       u[3,6]     1
 LI BND       u[4,0]     0
 UI BND       u[4,0]     1
 LI BND       u[4,1]     0
 UI BND       u[4,1]     1
 LI BND       u[4,2]     0
 UI BND       u[4,2]     1
 LI BND       u[4,5]     0
 UI BND       u[4,5]     1
 LI BND       u[4,6]     0
 UI BND       u[4,6]     1
 LI BND       u[4,7]     0
 UI BND       u[4,7]     1
 LI BND       u[5,0]     0
 UI BND       u[5,0]     1
 LI BND       u[5,1]     0
 UI BND       u[5,1]     1
 LI BND       u[5,2]     0
 UI BND       u[5,2]     1
 LI BND       u[5,3]     0
 UI BND       u[5,3]     1
 LI BND       u[5,4]     0
 UI BND       u[5,4]     1
 LI BND       u[5,6]     0
 UI BND       u[5,6]     1
 LI BND       u[6,0]     0
 UI BND       u[6,0]     1
 LI BND       u[6,1]     0
 UI BND       u[6,1]     1
 LI BND       u[6,2]     0
 UI BND       u[6,2]     1
 LI BND       u[6,3]     0
 UI BND       u[6,3]     1
 LI BND       u[6,4]     0
 UI BND       u[6,4]     1
 LI BND       u[6,5]     0
 UI BND       u[6,5]     1
 LI BND       u[7,0]     0
 UI BND       u[7,0]     1
 LI BND       u[7,2]     0
 UI BND       u[7,2]     1
 LI BND       u[7,4]     0
 UI BND       u[7,4]     1
ENDATA
